
Log started (V12.10.0.0) Fri Apr 23 08:26:26 2021


Problem 'asset.lp' read.
Read time = 0.01 sec. (0.84 ticks)
New value for default parallel thread count: 1
New value for time limit in seconds: 150
Version identifier: 12.10.0.0 | 2019-11-26 | 843d4de
CPXPARAM_Threads                                 1
CPXPARAM_TimeLimit                               150
Found incumbent of value 0.000000 after 0.00 sec. (0.20 ticks)
Tried aggregator 4 times.
MIP Presolve eliminated 4620 rows and 1279 columns.
MIP Presolve modified 5671 coefficients.
Aggregator did 1779 substitutions.
Reduced MIP has 2039 rows, 2612 columns, and 11482 nonzeros.
Reduced MIP has 2209 binaries, 342 generals, 0 SOSs, and 0 indicators.
Presolve time = 0.03 sec. (31.85 ticks)
Probing fixed 91 vars, tightened 24 bounds.
Probing time = 0.03 sec. (23.89 ticks)
Cover probing fixed 0 vars, tightened 15 bounds.
Tried aggregator 1 time.
Detecting symmetries...
MIP Presolve eliminated 166 rows and 139 columns.
MIP Presolve modified 372 coefficients.
Reduced MIP has 1873 rows, 2473 columns, and 10709 nonzeros.
Reduced MIP has 2095 binaries, 318 generals, 0 SOSs, and 0 indicators.
Presolve time = 0.01 sec. (6.95 ticks)
Probing time = 0.01 sec. (3.88 ticks)
Clique table members: 7321.
MIP emphasis: balance optimality and feasibility.
MIP search method: dynamic search.
Parallel mode: none, using 1 thread.
Root relaxation solution time = 0.02 sec. (28.78 ticks)

        Nodes                                         Cuts/
   Node  Left     Objective  IInf  Best Integer    Best Bound    ItCnt     Gap

*     0+    0                            0.0000      870.0000              --- 
      0     0      790.0000   307        0.0000      790.0000      707     --- 
      0     0      785.0000   307        0.0000     Cuts: 568     1380     --- 
      0     0      785.0000   307        0.0000     Cuts: 568     2042     --- 
      0     0      785.0000   307        0.0000     Cuts: 114     2409     --- 
*     0+    0                           95.0000      785.0000           726.32%
*     0+    0                          185.0000      785.0000           324.32%
      0     0        cutoff            185.0000      785.0000     2409  324.32%
      0     0      785.0000   307      185.0000     Cuts: 568     3102  324.32%
*     0+    0                          305.0000      785.0000           157.38%
*     0+    0                          360.0000      785.0000           118.06%
*     0+    0                          390.0000      785.0000           101.28%
*     0+    0                          425.0000      785.0000            84.71%
*     0+    0                          430.0000      785.0000            82.56%
      0     0        cutoff            430.0000      785.0000     3102   82.56%
Detecting symmetries...
      0     2      785.0000   233      430.0000      785.0000     3102   82.56%
Elapsed time = 1.18 sec. (1553.54 ticks, tree = 0.01 MB, solutions = 7)
     13    15      781.9031   255      430.0000      785.0000     6695   82.56%
     26    28      780.0314   272      430.0000      785.0000     9994   82.56%
     45    47      771.2971   234      430.0000      785.0000    12071   82.56%
     73    75      774.7063   221      430.0000      785.0000    14733   82.56%
    140   134      670.0000   122      430.0000      785.0000    17320   82.56%
    264   238      555.0000    48      430.0000      785.0000    19663   82.56%
    304   264      785.0000   250      430.0000      785.0000    21087   82.56%
    342   302      785.0000   211      430.0000      785.0000    22807   82.56%
    376   336      785.0000   219      430.0000      785.0000    25153   82.56%
    458   418      784.0256   269      430.0000      785.0000    35699   82.56%
Elapsed time = 3.39 sec. (4815.82 ticks, tree = 6.41 MB, solutions = 7)
*   535+  487                          470.0000      785.0000            67.02%
*   536+  488                          490.0000      785.0000            60.20%
*   537+  488                          495.0000      785.0000            58.59%
    571   524      785.0000   226      495.0000      785.0000    43376   58.59%

Performing restart 1

Repeating presolve.
Tried aggregator 2 times.
MIP Presolve modified 3274 coefficients.
Aggregator did 7 substitutions.
Reduced MIP has 1866 rows, 2466 columns, and 8815 nonzeros.
Reduced MIP has 2088 binaries, 318 generals, 0 SOSs, and 0 indicators.
Presolve time = 0.01 sec. (9.86 ticks)
Tried aggregator 1 time.
Reduced MIP has 1866 rows, 2466 columns, and 8815 nonzeros.
Reduced MIP has 2088 binaries, 318 generals, 0 SOSs, and 0 indicators.
Presolve time = 0.01 sec. (6.06 ticks)
Represolve time = 0.06 sec. (51.97 ticks)
    647     0      785.0000   414      495.0000     Cuts: 232    49577   58.59%
    647     0      784.5123   414      495.0000     Cuts: 176    52647   58.49%
    647     0      781.3671   414      495.0000     Cuts: 566    56534   57.85%
    647     0      779.1614   414      495.0000     Cuts: 385    68449   57.41%
    647     0      777.8594   414      495.0000     Cuts: 380    74951   57.14%
    647     0      776.2840   414      495.0000     Cuts: 359    79117   56.83%
    647     0      774.8762   414      495.0000     Cuts: 305    88241   56.54%
    647     0      774.4174   414      495.0000     Cuts: 325    93142   56.45%
    647     0      773.1956   414      495.0000     Cuts: 416    98655   56.20%
    647     0      772.1221   414      495.0000     Cuts: 332   108883   55.98%
    647     0      771.8782   414      495.0000     Cuts: 356   110398   55.93%
    647     0      771.5572   414      495.0000     Cuts: 286   113620   55.87%
    647     0      771.2911   414      495.0000     Cuts: 325   119089   55.82%
    647     0      770.5053   414      495.0000     Cuts: 349   120780   55.66%
    647     0      770.4203   414      495.0000     Cuts: 324   121965   55.64%
    647     0      770.3894   414      495.0000     Cuts: 258   122994   55.63%
    647     0      770.2784   414      495.0000     Cuts: 215   124807   55.61%
    647     0      770.2369   414      495.0000     Cuts: 234   125399   55.60%
    647     0      770.1467   414      495.0000     Cuts: 184   126328   55.59%
    647     0      770.0785   414      495.0000     Cuts: 230   128019   55.57%
    647     2      770.0785   500      495.0000      769.9736   128019   55.55%
    649     4      762.3306   448      495.0000      769.9652   132234   55.55%
    651     6      757.4811   481      495.0000      769.9652   137817   55.55%
    653     8      760.7574   421      495.0000      769.9652   145570   55.55%
    657    12      742.6569   407      495.0000      769.9652   154210   55.55%
    660    15      755.5985   435      495.0000      769.9652   163635   55.55%
    664    19      739.2219   392      495.0000      769.9652   171524   55.55%
    669    24      745.4478   410      495.0000      769.9652   176665   55.55%
    673    28      749.7916   395      495.0000      769.9652   180785   55.55%
Elapsed time = 31.56 sec. (43397.44 ticks, tree = 0.08 MB, solutions = 10)
    678    33      748.5650   437      495.0000      769.9652   183128   55.55%
    684    39      746.8520   430      495.0000      769.9652   190994   55.55%
    688    43      742.3783   399      495.0000      769.9652   196836   55.55%
    697    52      739.0116   377      495.0000      769.9652   203882   55.55%
    707    60      735.0000   372      495.0000      769.9652   212835   55.55%
    710    63      732.2814   406      495.0000      769.9652   218921   55.55%
    719    72      725.6422   381      495.0000      769.9652   227944   55.55%
    727    79      704.7409   313      495.0000      769.9652   236286   55.55%
    740    88      680.0000   313      495.0000      769.9652   240914   55.55%
*   747+   93                          505.0000      769.9652            52.47%
*   747+   93                          515.0000      769.9652            49.51%
*   747+   93                          525.0000      769.9652            46.66%
*   747+   93                          535.0000      769.9652            43.92%
    747    95      684.6706   300      535.0000      769.9652   244059   43.92%
Elapsed time = 42.21 sec. (58290.48 ticks, tree = 0.20 MB, solutions = 14)
    763   110      662.6913   280      535.0000      769.9652   250048   43.92%
    787   131      633.1635   223      535.0000      769.9652   254728   43.92%
    797   136      769.7497   501      535.0000      769.7497   257157   43.88%
    803   142      767.6514   473      535.0000      769.7497   266077   43.88%
    807   146      767.6508   472      535.0000      769.7497   271168   43.88%
    814   153      764.6155   433      535.0000      769.7497   280827   43.88%
    822   161      750.4672   391      535.0000      769.7497   290036   43.88%
    827   166      755.7975   418      535.0000      769.7497   300124   43.88%
    831   170      752.9199   417      535.0000      769.7497   307737   43.88%
    839   178      743.2088   381      535.0000      769.7497   312837   43.88%
Elapsed time = 50.27 sec. (69991.37 ticks, tree = 0.32 MB, solutions = 14)
    845   184      731.9928   398      535.0000      769.7497   317827   43.88%
*   847+  183                          540.0000      769.7497            42.55%
    847   185      725.0000   343      540.0000      769.7497   321803   42.55%
    858   194      714.0457   367      540.0000      769.7497   324738   42.55%
    871   206      713.3087   309      540.0000      769.7497   327290   42.55%
    880   215      689.3821   301      540.0000      769.7497   332234   42.55%
    910   232      655.0000   263      540.0000      769.7497   334589   42.55%
    917   235      763.2336   548      540.0000      769.3372   340887   42.47%
    927   245      756.4922   466      540.0000      769.3372   343806   42.47%
    940   258      747.9738   419      540.0000      769.3372   347252   42.47%
    947   265      729.2046   360      540.0000      769.3372   349028   42.47%
Elapsed time = 64.17 sec. (89757.83 ticks, tree = 0.45 MB, solutions = 15)
    960   278      722.6322   401      540.0000      769.3372   354075   42.47%
    974   287      760.3283   491      540.0000      769.2277   361744   42.45%
    986   299      753.4848   477      540.0000      769.2277   365483   42.45%
    988   301      751.7794   465      540.0000      769.2277   366053   42.45%
   1007   320      727.5000   373      540.0000      769.2277   369768   42.45%
   1027   340      710.0000   370      540.0000      769.2277   373099   42.45%
   1038   347      768.5289   512      540.0000      769.2277   380093   42.45%
   1043   352      763.0636   474      540.0000      769.2277   386212   42.45%
   1047   356      758.2645   467      540.0000      769.2277   388751   42.45%
   1061   370      752.5016   471      540.0000      769.2277   392060   42.45%
Elapsed time = 75.62 sec. (106216.01 ticks, tree = 0.59 MB, solutions = 15)
   1078   387      722.5784   420      540.0000      769.2277   396100   42.45%
   1087   396      684.9562   322      540.0000      769.2277   398518   42.45%
   1095   397      764.2797   479      540.0000      768.5219   404445   42.32%
   1100   402      761.8994   457      540.0000      768.5219   411577   42.32%
   1108   410      744.5048   410      540.0000      768.5219   417674   42.32%
   1114   416      740.5513   403      540.0000      768.5219   427576   42.32%
   1121   423      733.3515   385      540.0000      768.5219   436408   42.32%
   1137   439      736.0549   378      540.0000      768.5219   446600   42.32%
   1147   449      730.7713   371      540.0000      768.5219   451857   42.32%
   1164   464      725.8997   351      540.0000      768.5219   460616   42.32%
Elapsed time = 84.79 sec. (119145.47 ticks, tree = 0.72 MB, solutions = 15)
   1169   469      706.9933   330      540.0000      768.5219   465850   42.32%
   1184   484      692.5655   308      540.0000      768.5219   474456   42.32%
   1204   498      662.3901   238      540.0000      768.5219   483154   42.32%
   1235   516      754.7085   467      540.0000      767.8940   491861   42.20%
   1242   523      745.0752   442      540.0000      767.8940   499520   42.20%
   1247   528      735.2113   400      540.0000      767.8940   505067   42.20%
   1259   540      726.8531   380      540.0000      767.8940   512949   42.20%
   1275   556      675.0907   280      540.0000      767.8940   521305   42.20%
   1278   555      760.9177   501      540.0000      767.6508   527157   42.16%
   1285   562      751.1434   487      540.0000      767.6508   533199   42.16%
Elapsed time = 93.47 sec. (131200.11 ticks, tree = 0.88 MB, solutions = 15)
   1296   573      728.0687   371      540.0000      767.6508   541981   42.16%
   1306   583      698.7970   370      540.0000      767.6508   550457   42.16%
   1329   602      646.3833   290      540.0000      767.6508   556842   42.16%
   1334   603      761.7139   464      540.0000      767.5967   563253   42.15%
   1345   614      751.5613   437      540.0000      767.5967   568992   42.15%
*  1347+  614                          545.0000      767.5967            40.84%
   1359   628      739.8387   381      545.0000      767.5967   572594   40.84%
   1371   640      684.4355   306      545.0000      767.5967   574909   40.84%
   1419   686      604.4973   206      545.0000      767.5967   577663   40.84%
   1432   692      755.8819   466      545.0000      767.5030   585803   40.83%
   1446   706      743.4631   436      545.0000      767.5030   589827   40.83%
Elapsed time = 100.85 sec. (141910.69 ticks, tree = 1.09 MB, solutions = 16)
   1450   710      736.9190   415      545.0000      767.5030   591960   40.83%
   1453   712      698.3990   349      545.0000      767.5030   598126   40.83%
   1480   734      754.7844   485      545.0000      766.1732   605407   40.58%
   1484   738      749.9819   472      545.0000      766.1732   609561   40.58%
   1491   745      736.3362   394      545.0000      766.1732   614677   40.58%
   1504   758      723.8566   403      545.0000      766.1732   618669   40.58%
   1522   776      714.4241   357      545.0000      766.1732   622841   40.58%
   1529   783      684.8866   342      545.0000      766.1732   630054   40.58%
   1561   802      639.7147   224      545.0000      766.1732   633934   40.58%
   1628   854      756.3679   451      545.0000      765.3359   647119   40.43%
Elapsed time = 110.54 sec. (155930.16 ticks, tree = 1.31 MB, solutions = 16)
   1648   874      725.5912   389      545.0000      765.3359   653969   40.43%
   1687   909      733.9721   399      545.0000      764.4769   665497   40.27%
   1746   958    infeasible            545.0000      764.4769   676578   40.27%
   1769   981      718.2311   360      545.0000      764.0362   687285   40.19%
   1822  1027      632.9200   258      545.0000      763.9573   701537   40.18%
   1847  1048      727.3365   452      545.0000      763.3988   718499   40.07%
   1885  1079      748.6753   482      545.0000      763.3700   735400   40.07%
   1918  1111      679.4499   374      545.0000      763.3700   753483   40.07%
   1937  1125      734.7525   442      545.0000      763.2336   773462   40.04%
*  1947+ 1133                          550.0000      763.2336            38.77%
Starting limited solution polishing.
   1960  1146      672.4045   345      550.0000      763.2336   792150   38.77%
Elapsed time = 138.22 sec. (195437.39 ticks, tree = 2.04 MB, solutions = 17)
   2020  1196      745.1194   479      550.0000      763.0329   810531   38.73%
   2047  1221      696.0619   360      550.0000      763.0329   823241   38.73%
   2073  1240      745.2555   454      550.0000      762.8287   840413   38.70%
   2115  1282      706.2301   365      550.0000      762.8287   856319   38.70%
Advanced basis not built.

GUB cover cuts applied:  209
Clique cuts applied:  27
Cover cuts applied:  63
Implied bound cuts applied:  212
Flow cuts applied:  40
Mixed integer rounding cuts applied:  191
Zero-half cuts applied:  78
Lift and project cuts applied:  14
Gomory fractional cuts applied:  6

Root node processing (before b&c):
  Real time             =    1.16 sec. (1537.39 ticks)
Sequential b&c:
  Real time             =  148.84 sec. (210818.26 ticks)
                          ------------
Total (root+branch&cut) =  150.00 sec. (212355.65 ticks)

Solution pool: 18 solutions saved.

MIP - Time limit exceeded, integer feasible:  Objective =  5.5000000000e+02
Current MIP best bound =  7.6282870932e+02 (gap = 212.829, 38.70%)
Solution time =  150.00 sec.  Iterations = 860494  Nodes = 2137 (1303)
Deterministic time = 212355.67 ticks  (1415.68 ticks/sec)


Incumbent solution
Variable Name           Solution Value
F                           550.000000
y67                           1.000000
y50                           1.000000
y29                           1.000000
y202                          1.000000
y69                           1.000000
y191                          1.000000
y147                          1.000000
y66                           1.000000
y8                            1.000000
y14                           1.000000
y243                          1.000000
y194                          1.000000
y210                          1.000000
y124                          1.000000
y4                            1.000000
y150                          1.000000
y111                          1.000000
y39                           1.000000
y77                           1.000000
y54                           1.000000
y61                           1.000000
y224                          1.000000
y159                          1.000000
y190                          1.000000
y80                           1.000000
y242                          1.000000
y96                           1.000000
y116                          1.000000
y42                           1.000000
y65                           1.000000
y204                          1.000000
y188                          1.000000
y143                          1.000000
y101                          1.000000
y129                          1.000000
y244                          1.000000
x127x147x1                    1.000000
x171x14x1                     1.000000
x171x224x1                    1.000000
x25x50x1                      1.000000
x175x66x1                     1.000000
x38x243x1                     1.000000
x38x224x1                     1.000000
x107x69x1                     2.000000
x237x29x1                     1.000000
x53x191x1                     2.000000
x23x14x2                      1.000000
x30x190x2                     1.000000
x43x29x2                      1.000000
x43x77x2                      1.000000
x83x66x2                      1.000000
x83x124x2                     1.000000
x203x4x2                      2.000000
x25x210x2                     1.000000
x176x190x2                    1.000000
x222x150x2                    2.000000
x23x54x3                      1.000000
x127x243x3                    1.000000
x114x67x3                     2.000000
x30x202x3                     1.000000
x7x147x3                      1.000000
x7x124x3                      1.000000
x175x202x3                    1.000000
x154x210x3                    1.000000
x154x77x3                     1.000000
x176x54x3                     1.000000
x237x50x3                     1.000000
x67x111x3                     2.000000
x50x159x1                     1.000000
x50x80x3                      1.000000
x29x8x1                       1.000000
x29x194x2                     1.000000
x202x96x3                     2.000000
x69x39x1                      1.000000
x69x129x1                     1.000000
x191x194x1                    1.000000
x191x65x1                     1.000000
x147x244x1                    1.000000
x147x101x3                    1.000000
x66x8x1                       1.000000
x66x116x2                     1.000000
x8x0x1                        2.000000
x14x204x1                     1.000000
x14x129x2                     1.000000
x243x159x1                    1.000000
x243x244x3                    1.000000
x194x0x1                      1.000000
x194x0x2                      1.000000
x210x143x2                    1.000000
x210x80x3                     1.000000
x124x61x2                     1.000000
x124x242x3                    1.000000
x4x116x2                      1.000000
x4x143x2                      1.000000
x150x39x2                     1.000000
x150x61x2                     1.000000
x111x0x3                      2.000000
x39x0x1                       1.000000
x39x0x2                       1.000000
x77x65x2                      1.000000
x77x242x3                     1.000000
x54x188x3                     2.000000
x61x0x2                       2.000000
x224x42x1                     2.000000
x159x0x1                      2.000000
x190x204x2                    1.000000
x190x101x2                    1.000000
x80x0x3                       2.000000
x242x0x3                      2.000000
x96x0x3                       2.000000
x116x0x2                      2.000000
x42x0x1                       2.000000
x65x0x1                       1.000000
x65x0x2                       1.000000
x204x0x1                      1.000000
x204x0x2                      1.000000
x188x0x3                      2.000000
x143x0x2                      2.000000
x101x0x2                      1.000000
x101x0x3                      1.000000
x129x0x1                      1.000000
x129x0x2                      1.000000
x244x0x1                      1.000000
x244x0x3                      1.000000
s23                           5.962807
s245                          7.720000
s147                          7.465831
s156                          7.880000
s66                           6.910000
s13                           6.980000
s14                           7.516048
z23z14z2                      1.000000
s180                          7.360000
s243                          7.576019
s187                          7.400000
s194                          8.420000
s210                          7.450000
s215                          7.480000
s64                           8.510000
s124                          7.530000
s4                            7.550000
s209                          8.550000
s169                          7.832045
s150                          7.570000
s111                          8.194463
s3                            7.640000
s51                           7.640000
s39                           8.603333
s77                           7.660000
s54                           7.772431
z23z54z3                      1.000000
s61                           8.597487
s190                          7.790000
z23z190z2                     1.000000
s80                           8.496666
z23z80z3                      1.000000
s208                          7.830000
z23z208z2                     1.000000
s242                          8.930000
z23z242z3                     1.000000
s132                          9.010000
s96                           9.070000
z23z96z3                      1.000000
s116                          9.070000
z23z116z2                     1.000000
s65                           9.110000
s130                          9.160000
z23z130z3                     1.000000
s204                          9.210000
s239                          9.230000
s188                          9.223257
z23z188z3                     1.000000
s143                          8.997015
z23z143z2                     1.000000
s101                          9.310000
s157                          9.310000
s129                          9.380000
s244                          9.440000
s127                          6.007333
s191                          7.029427
z127z147z1                    1.000000
s248                          6.950000
s8                            8.209145
z127z243z3                    1.000000
s224                          7.750000
s125                          8.760000
z127z125z1                    1.000000
s159                          8.780000
z127z159z1                    1.000000
z127z80z3                     1.000000
z127z242z3                    1.000000
s173                          9.010000
z127z173z1                    1.000000
z127z96z3                     1.000000
s42                           8.934391
z127z42z1                     1.000000
s225                          9.110000
z127z225z1                    1.000000
z127z130z3                    1.000000
s217                          9.200000
z127z217z1                    1.000000
s231                          8.210000
z127z231z1                    1.000000
z127z188z3                    1.000000
s234                          9.240000
z127z234z1                    1.000000
s160                          9.380000
z127z160z1                    1.000000
s171                          5.950471
z171z14z1                     1.000000
z171z224z1                    1.000000
z171z125z1                    1.000000
z171z159z1                    1.000000
z171z173z1                    1.000000
z171z42z1                     1.000000
z171z225z1                    1.000000
z171z217z1                    1.000000
z171z231z1                    1.000000
z171z234z1                    1.000000
z171z160z1                    1.000000
s114                          4.914720
s67                           6.669699
z114z67z3                     1.000000
s121                          6.629526
s104                          5.770000
s50                           6.817730
s201                          6.812326
s103                          5.830000
s21                           5.880000
s10                           5.910000
s202                          6.984211
z114z180z3                    1.000000
z114z187z3                    1.000000
z114z169z3                    1.000000
z114z111z3                    1.000000
z114z54z3                     1.000000
z114z80z3                     1.000000
z114z242z3                    1.000000
z114z96z3                     1.000000
z114z130z3                    1.000000
z114z188z3                    1.000000
s30                           5.116850
z30z202z3                     1.000000
z30z180z3                     1.000000
z30z187z3                     1.000000
z30z4z2                       1.000000
z30z209z2                     1.000000
z30z169z3                     1.000000
z30z150z2                     1.000000
z30z111z3                     1.000000
z30z54z3                      1.000000
z30z61z2                      1.000000
z30z190z2                     1.000000
z30z80z3                      1.000000
z30z208z2                     1.000000
z30z242z3                     1.000000
z30z96z3                      1.000000
z30z116z2                     1.000000
z30z130z3                     1.000000
z30z188z3                     1.000000
z30z143z2                     1.000000
s7                            5.216670
z7z147z3                      1.000000
z7z180z3                      1.000000
z7z187z3                      1.000000
z7z124z3                      1.000000
z7z169z3                      1.000000
z7z111z3                      1.000000
z7z54z3                       1.000000
z7z80z3                       1.000000
z7z242z3                      1.000000
z7z96z3                       1.000000
z7z130z3                      1.000000
z7z188z3                      1.000000
s43                           4.999100
s136                          5.750000
s246                          6.727644
z43z246z2                     1.000000
s29                           6.827685
z43z29z2                      1.000000
z43z4z2                       1.000000
z43z209z2                     1.000000
z43z150z2                     1.000000
z43z77z2                      1.000000
z43z61z2                      1.000000
z43z190z2                     1.000000
z43z208z2                     1.000000
z43z116z2                     1.000000
z43z143z2                     1.000000
s83                           5.226490
z83z66z2                      1.000000
z83z124z2                     1.000000
z83z4z2                       1.000000
z83z209z2                     1.000000
z83z150z2                     1.000000
z83z61z2                      1.000000
z83z190z2                     1.000000
z83z208z2                     1.000000
z83z116z2                     1.000000
z83z143z2                     1.000000
s203                          4.934860
s82                           5.680000
s73                           5.730000
z203z4z2                      1.000000
z203z209z2                    1.000000
z203z150z2                    1.000000
z203z61z2                     1.000000
z203z190z2                    1.000000
z203z208z2                    1.000000
z203z116z2                    1.000000
z203z143z2                    1.000000
s25                           5.204800
z25z50z1                      1.000000
s153                          5.990000
s69                           6.996769
z25z248z1                     1.000000
z25z8z1                       1.000000
z25z210z2                     1.000000
z25z4z2                       1.000000
z25z209z2                     1.000000
z25z150z2                     1.000000
z25z61z2                      1.000000
z25z224z1                     1.000000
z25z125z1                     1.000000
z25z159z1                     1.000000
z25z190z2                     1.000000
z25z208z2                     1.000000
z25z173z1                     1.000000
z25z116z2                     1.000000
z25z42z1                      1.000000
z25z225z1                     1.000000
z25z217z1                     1.000000
z25z231z1                     1.000000
z25z234z1                     1.000000
z25z143z2                     1.000000
z25z160z1                     1.000000
s175                          5.304730
z175z202z3                    1.000000
z175z66z1                     1.000000
z175z248z1                    1.000000
z175z8z1                      1.000000
z175z180z3                    1.000000
z175z187z3                    1.000000
z175z169z3                    1.000000
z175z111z3                    1.000000
z175z54z3                     1.000000
z175z224z1                    1.000000
z175z125z1                    1.000000
z175z159z1                    1.000000
z175z80z3                     1.000000
z175z242z3                    1.000000
z175z173z1                    1.000000
z175z96z3                     1.000000
z175z42z1                     1.000000
z175z225z1                    1.000000
z175z130z3                    1.000000
z175z217z1                    1.000000
z175z231z1                    1.000000
z175z188z3                    1.000000
z175z234z1                    1.000000
z175z160z1                    1.000000
s154                          5.313460
z154z180z3                    1.000000
z154z187z3                    1.000000
z154z210z3                    1.000000
z154z169z3                    1.000000
z154z111z3                    1.000000
z154z77z3                     1.000000
z154z54z3                     1.000000
z154z80z3                     1.000000
z154z242z3                    1.000000
z154z96z3                     1.000000
z154z130z3                    1.000000
z154z188z3                    1.000000
s176                          5.827460
z176z54z3                     1.000000
z176z190z2                    1.000000
z176z208z2                    1.000000
z176z96z3                     1.000000
z176z116z2                    1.000000
z176z130z3                    1.000000
z176z188z3                    1.000000
z176z143z2                    1.000000
s222                          5.117420
z222z4z2                      1.000000
z222z209z2                    1.000000
z222z150z2                    1.000000
z222z61z2                     1.000000
z222z190z2                    1.000000
z222z208z2                    1.000000
z222z116z2                    1.000000
z222z143z2                    1.000000
s38                           5.438750
z38z191z1                     1.000000
z38z8z1                       1.000000
z38z243z1                     1.000000
z38z224z1                     1.000000
z38z125z1                     1.000000
z38z159z1                     1.000000
z38z173z1                     1.000000
z38z42z1                      1.000000
z38z225z1                     1.000000
z38z217z1                     1.000000
z38z231z1                     1.000000
z38z234z1                     1.000000
z38z160z1                     1.000000
s107                          5.562490
z107z69z1                     1.000000
z107z191z1                    1.000000
z107z8z1                      1.000000
z107z224z1                    1.000000
z107z125z1                    1.000000
z107z159z1                    1.000000
z107z173z1                    1.000000
z107z42z1                     1.000000
z107z225z1                    1.000000
z107z217z1                    1.000000
z107z231z1                    1.000000
z107z234z1                    1.000000
z107z160z1                    1.000000
s237                          5.150000
s133                          5.410000
s256                          5.540000
z237z50z3                     1.000000
s158                          5.830000
z237z29z1                     1.000000
z237z191z1                    1.000000
z237z248z1                    1.000000
z237z8z1                      1.000000
z237z180z3                    1.000000
z237z187z3                    1.000000
z237z169z3                    1.000000
z237z111z3                    1.000000
z237z54z3                     1.000000
z237z224z1                    1.000000
z237z125z1                    1.000000
z237z159z1                    1.000000
z237z80z3                     1.000000
z237z242z3                    1.000000
z237z173z1                    1.000000
z237z96z3                     1.000000
z237z42z1                     1.000000
z237z225z1                    1.000000
z237z130z3                    1.000000
z237z217z1                    1.000000
z237z231z1                    1.000000
z237z188z3                    1.000000
z237z234z1                    1.000000
z237z160z1                    1.000000
s53                           5.605030
z53z191z1                     1.000000
z53z8z1                       1.000000
z53z224z1                     1.000000
z53z125z1                     1.000000
z53z159z1                     1.000000
z53z173z1                     1.000000
z53z42z1                      1.000000
z53z225z1                     1.000000
z53z217z1                     1.000000
z53z231z1                     1.000000
z53z234z1                     1.000000
z53z160z1                     1.000000
s18                           5.270000
s220                          5.290000
s32                           5.270000
s238                          5.280000
s40                           5.380000
s58                           5.300000
s117                          5.340000
s71                           5.370000
z133z125z1                    1.000000
z133z173z1                    1.000000
z133z217z1                    1.000000
z133z160z1                    1.000000
z82z125z1                     1.000000
z82z173z1                     1.000000
z82z217z1                     1.000000
z67z111z3                     1.000000
z73z150z2                     1.000000
z136z125z1                    1.000000
z136z173z1                    1.000000
z136z217z1                    1.000000
z104z125z1                    1.000000
z104z173z1                    1.000000
z104z217z1                    1.000000
z50z125z1                     1.000000
z50z159z1                     1.000000
z50z80z3                      1.000000
z50z173z1                     1.000000
z50z217z1                     1.000000
z103z125z1                    1.000000
z103z173z1                    1.000000
z103z217z1                    1.000000
z158z125z1                    1.000000
z158z173z1                    1.000000
z158z217z1                    1.000000
z21z125z1                     1.000000
z21z173z1                     1.000000
z21z217z1                     1.000000
z29z8z1                       1.000000
z29z194z2                     1.000000
z29z125z1                     1.000000
z29z173z1                     1.000000
z29z217z1                     1.000000
z153z125z1                    1.000000
z153z173z1                    1.000000
z153z217z1                    1.000000
z202z96z3                     1.000000
z69z39z1                      1.000000
z69z125z1                     1.000000
z69z173z1                     1.000000
z69z217z1                     1.000000
z69z129z1                     1.000000
z191z194z1                    1.000000
z191z65z1                     1.000000
z147z101z3                    1.000000
z147z244z1                    1.000000
z66z8z1                       1.000000
z66z116z2                     1.000000
z14z204z1                     1.000000
z14z129z2                     1.000000
z243z159z1                    1.000000
z243z244z3                    1.000000
z187z80z3                     1.000000
z187z96z3                     1.000000
z187z188z3                    1.000000
z210z80z3                     1.000000
z210z143z2                    1.000000
z124z61z2                     1.000000
z124z242z3                    1.000000
z4z116z2                      1.000000
z4z143z2                      1.000000
z169z96z3                     1.000000
z150z39z2                     1.000000
z150z61z2                     1.000000
z77z242z3                     1.000000
z77z65z2                      1.000000
z54z188z3                     1.000000
z224z42z1                     1.000000
z224z217z1                    1.000000
z224z234z1                    1.000000
z190z204z2                    1.000000
z190z101z2                    1.000000
z231z234z1                    1.000000
All other variables in the range 1-5673 are 0.
